% Auto-generated by scripts/generate_dzn.py
% problem_type   = nonogram
% instance       = nonogram_25
% source_json    = instances_json/0_low_blowup/nonogram_25.json
% blowup         = 1.1369863013698631
% representation = DFA

mode = 0;

height = 10;
width = 10;
Q = 11;
S = 2;
row_q0 = [1, 1, 1, 1, 1, 1, 1, 1, 1, 1];
row_F = [{4}, {6}, {9}, {7}, {8}, {9}, {7}, {8}, {10}, {4}];
col_q0 = [1, 1, 1, 1, 1, 1, 1, 1, 1, 1];
col_F = [{5}, {8}, {7}, {4}, {9}, {9}, {9}, {9}, {8}, {6}];
row_d_dfa = array3d(1..10, 1..11, 1..2, [
  % k = 1
    1, 2,
    3, 5,
    3, 4,
    4, 5,
    5, 5,
    0, 0,
    0, 0,
    0, 0,
    0, 0,
    0, 0,
    0, 0,

  % k = 2
    1, 2,
    3, 7,
    3, 4,
    7, 5,
    7, 6,
    6, 7,
    7, 7,
    0, 0,
    0, 0,
    0, 0,
    0, 0,

  % k = 3
    1, 2,
    3, 10,
    3, 4,
    5, 10,
    5, 6,
    10, 7,
    10, 8,
    10, 9,
    9, 10,
    10, 10,
    0, 0,

  % k = 4
    1, 2,
    8, 3,
    8, 4,
    8, 5,
    8, 6,
    8, 7,
    7, 8,
    8, 8,
    0, 0,
    0, 0,
    0, 0,

  % k = 5
    1, 2,
    9, 3,
    4, 9,
    4, 5,
    9, 6,
    7, 9,
    7, 8,
    8, 9,
    9, 9,
    0, 0,
    0, 0,

  % k = 6
    1, 2,
    10, 3,
    4, 10,
    4, 5,
    10, 6,
    10, 7,
    10, 8,
    10, 9,
    9, 10,
    10, 10,
    0, 0,

  % k = 7
    1, 2,
    8, 3,
    8, 4,
    5, 8,
    5, 6,
    8, 7,
    7, 8,
    8, 8,
    0, 0,
    0, 0,
    0, 0,

  % k = 8
    1, 2,
    9, 3,
    4, 9,
    4, 5,
    9, 6,
    9, 7,
    9, 8,
    8, 9,
    9, 9,
    0, 0,
    0, 0,

  % k = 9
    1, 2,
    11, 3,
    11, 4,
    11, 5,
    11, 6,
    11, 7,
    11, 8,
    11, 9,
    11, 10,
    10, 11,
    11, 11,

  % k = 10
    1, 2,
    3, 5,
    3, 4,
    4, 5,
    5, 5,
    0, 0,
    0, 0,
    0, 0,
    0, 0,
    0, 0,
    0, 0
]);
row_d_nfa = array3d(1..10, 1..11, 1..2, [
  % k = 1
    {}, {},
    {}, {},
    {}, {},
    {}, {},
    {}, {},
    {}, {},
    {}, {},
    {}, {},
    {}, {},
    {}, {},
    {}, {},

  % k = 2
    {}, {},
    {}, {},
    {}, {},
    {}, {},
    {}, {},
    {}, {},
    {}, {},
    {}, {},
    {}, {},
    {}, {},
    {}, {},

  % k = 3
    {}, {},
    {}, {},
    {}, {},
    {}, {},
    {}, {},
    {}, {},
    {}, {},
    {}, {},
    {}, {},
    {}, {},
    {}, {},

  % k = 4
    {}, {},
    {}, {},
    {}, {},
    {}, {},
    {}, {},
    {}, {},
    {}, {},
    {}, {},
    {}, {},
    {}, {},
    {}, {},

  % k = 5
    {}, {},
    {}, {},
    {}, {},
    {}, {},
    {}, {},
    {}, {},
    {}, {},
    {}, {},
    {}, {},
    {}, {},
    {}, {},

  % k = 6
    {}, {},
    {}, {},
    {}, {},
    {}, {},
    {}, {},
    {}, {},
    {}, {},
    {}, {},
    {}, {},
    {}, {},
    {}, {},

  % k = 7
    {}, {},
    {}, {},
    {}, {},
    {}, {},
    {}, {},
    {}, {},
    {}, {},
    {}, {},
    {}, {},
    {}, {},
    {}, {},

  % k = 8
    {}, {},
    {}, {},
    {}, {},
    {}, {},
    {}, {},
    {}, {},
    {}, {},
    {}, {},
    {}, {},
    {}, {},
    {}, {},

  % k = 9
    {}, {},
    {}, {},
    {}, {},
    {}, {},
    {}, {},
    {}, {},
    {}, {},
    {}, {},
    {}, {},
    {}, {},
    {}, {},

  % k = 10
    {}, {},
    {}, {},
    {}, {},
    {}, {},
    {}, {},
    {}, {},
    {}, {},
    {}, {},
    {}, {},
    {}, {},
    {}, {}
]);
col_d_dfa = array3d(1..10, 1..11, 1..2, [
  % k = 1
    1, 2,
    6, 3,
    4, 6,
    4, 5,
    5, 6,
    6, 6,
    0, 0,
    0, 0,
    0, 0,
    0, 0,
    0, 0,

  % k = 2
    1, 2,
    3, 9,
    3, 4,
    9, 5,
    9, 6,
    7, 9,
    7, 8,
    8, 9,
    9, 9,
    0, 0,
    0, 0,

  % k = 3
    1, 2,
    8, 3,
    4, 8,
    4, 5,
    8, 6,
    8, 7,
    7, 8,
    8, 8,
    0, 0,
    0, 0,
    0, 0,

  % k = 4
    1, 2,
    5, 3,
    5, 4,
    4, 5,
    5, 5,
    0, 0,
    0, 0,
    0, 0,
    0, 0,
    0, 0,
    0, 0,

  % k = 5
    1, 2,
    10, 3,
    10, 4,
    10, 5,
    10, 6,
    10, 7,
    8, 10,
    8, 9,
    9, 10,
    10, 10,
    0, 0,

  % k = 6
    1, 2,
    3, 10,
    3, 4,
    10, 5,
    10, 6,
    7, 10,
    7, 8,
    10, 9,
    9, 10,
    10, 10,
    0, 0,

  % k = 7
    1, 2,
    10, 3,
    10, 4,
    5, 10,
    5, 6,
    7, 10,
    7, 8,
    10, 9,
    9, 10,
    10, 10,
    0, 0,

  % k = 8
    1, 2,
    10, 3,
    4, 10,
    4, 5,
    10, 6,
    10, 7,
    10, 8,
    10, 9,
    9, 10,
    10, 10,
    0, 0,

  % k = 9
    1, 2,
    9, 3,
    4, 9,
    4, 5,
    9, 6,
    9, 7,
    9, 8,
    8, 9,
    9, 9,
    0, 0,
    0, 0,

  % k = 10
    1, 2,
    7, 3,
    7, 4,
    5, 7,
    5, 6,
    6, 7,
    7, 7,
    0, 0,
    0, 0,
    0, 0,
    0, 0
]);
col_d_nfa = array3d(1..10, 1..11, 1..2, [
  % k = 1
    {}, {},
    {}, {},
    {}, {},
    {}, {},
    {}, {},
    {}, {},
    {}, {},
    {}, {},
    {}, {},
    {}, {},
    {}, {},

  % k = 2
    {}, {},
    {}, {},
    {}, {},
    {}, {},
    {}, {},
    {}, {},
    {}, {},
    {}, {},
    {}, {},
    {}, {},
    {}, {},

  % k = 3
    {}, {},
    {}, {},
    {}, {},
    {}, {},
    {}, {},
    {}, {},
    {}, {},
    {}, {},
    {}, {},
    {}, {},
    {}, {},

  % k = 4
    {}, {},
    {}, {},
    {}, {},
    {}, {},
    {}, {},
    {}, {},
    {}, {},
    {}, {},
    {}, {},
    {}, {},
    {}, {},

  % k = 5
    {}, {},
    {}, {},
    {}, {},
    {}, {},
    {}, {},
    {}, {},
    {}, {},
    {}, {},
    {}, {},
    {}, {},
    {}, {},

  % k = 6
    {}, {},
    {}, {},
    {}, {},
    {}, {},
    {}, {},
    {}, {},
    {}, {},
    {}, {},
    {}, {},
    {}, {},
    {}, {},

  % k = 7
    {}, {},
    {}, {},
    {}, {},
    {}, {},
    {}, {},
    {}, {},
    {}, {},
    {}, {},
    {}, {},
    {}, {},
    {}, {},

  % k = 8
    {}, {},
    {}, {},
    {}, {},
    {}, {},
    {}, {},
    {}, {},
    {}, {},
    {}, {},
    {}, {},
    {}, {},
    {}, {},

  % k = 9
    {}, {},
    {}, {},
    {}, {},
    {}, {},
    {}, {},
    {}, {},
    {}, {},
    {}, {},
    {}, {},
    {}, {},
    {}, {},

  % k = 10
    {}, {},
    {}, {},
    {}, {},
    {}, {},
    {}, {},
    {}, {},
    {}, {},
    {}, {},
    {}, {},
    {}, {},
    {}, {}
]);
